32	0

0	4	2	3	4	5
10	2	7	11
6	3	7	8	9
7	3	7	8	9
4	1	6
5	3	7	8	9
10	3	10	12	14
6	3	10	11	12
7	3	10	11	12
10	3	13	15	18
8	4	13	14	15	18
10	3	13	15	18
2	2	16	17
9	1	17
9	2	19	21
10	3	20	21	22
3	2	19	21
10	3	20	21	22
8	3	20	22	23
7	2	24	27
8	3	23	24	27
7	2	24	27
10	2	25	28
2	2	25	26
9	1	30
8	1	28
10	1	28
1	1	29
1	1	30
1	1	31
10	1	32
0	0
